13809.12,50.43,57.29
13621.92,51.12,58.08
13120.81,53.08,60.29
12951.07,53.77,61.08
14238.82,48.91,55.56
14561.81,47.82,54.33
14695.57,47.39,53.83
13493.59,51.61,58.63
11958.95,58.23,66.15
15117.65,46.07,52.33
12765.09,54.55,61.97
13637.15,51.07,58.01
11999.31,58.04,65.93
13974.87,49.83,56.61
13862.72,50.24,57.07
14934.01,46.63,52.97
13651.08,51.01,57.95
13878.39,50.18,57.0
13603.77,51.19,58.15
14120.8,49.32,56.02
